experiments/lot-sizing/detailed-output/inst-9-1489266180.dzn

change_cost = array2d(0..8, 0..8,
                      [0, 0, 0, 0, 0, 0, 0, 0, 0, 0, 0, 136, 197, 39, 180, 111, 143, 174,
                       0, 147, 0, 185, 131, 168, 173, 132, 64, 0, 131, 70, 0, 110, 63, 192, 56, 23,
                       0, 99, 118, 164, 0, 157, 200, 130, 140, 0, 92, 41, 147, 101, 0, 186, 136, 59,
                       0, 137, 153, 134, 107, 176, 0, 155, 75, 0, 105, 43, 148, 57, 139, 194, 0, 66,
                       0, 122, 125, 167, 138, 112, 175, 179, 0]);
due_period = array1d(1..8, [9, 6, 7, 5, 5, 8, 1, 2]);
inventory_cost = 8;
item_type = array1d(0..8, [0, 1, 1, 2, 3, 3, 4, 5, 6]);
nb_item_types = 6;
nb_of_orders = array1d(1..6, [2, 1, 2, 1, 1, 1]);
nb_orders = 8;
nb_periods = 10;
